BAYES
625
2 2 2 2 2 2 2 2 2 2 2 2 2 2 2 2 2 2 2 2 2 2 2 2 2 2 2 2 2 2 2 2 2 2 2 2 2 2 2 2 2 2 2 2 2 2 2 2 2 2 2 2 2 2 2 2 2 2 2 2 2 2 2 2 2 2 2 2 2 2 2 2 2 2 2 2 2 2 2 2 2 2 2 2 2 2 2 2 2 2 2 2 2 2 2 2 2 2 2 2 2 2 2 2 2 2 2 2 2 2 2 2 2 2 2 2 2 2 2 2 2 2 2 2 2 2 2 2 2 2 2 2 2 2 2 2 2 2 2 2 2 2 2 2 2 2 2 2 2 2 2 2 2 2 2 2 2 2 2 2 2 2 2 2 2 2 2 2 2 2 2 2 2 2 2 2 2 2 2 2 2 2 2 2 2 2 2 2 2 2 2 2 2 2 2 2 2 2 2 2 2 2 2 2 2 2 2 2 2 2 2 2 2 2 2 2 2 2 2 2 2 2 2 2 2 2 2 2 2 2 2 2 2 2 2 2 2 2 2 2 2 2 2 2 2 2 2 2 2 2 2 2 2 2 2 2 2 2 2 2 2 2 2 2 2 2 2 2 2 2 2 2 2 2 2 2 2 2 2 2 2 2 2 2 2 2 2 2 2 2 2 2 2 2 2 2 2 2 2 2 2 2 2 2 2 2 2 2 2 2 2 2 2 2 2 2 2 2 2 2 2 2 2 2 2 2 2 2 2 2 2 2 2 2 2 2 2 2 2 2 2 2 2 2 2 2 2 2 2 2 2 2 2 2 2 2 2 2 2 2 2 2 2 2 2 2 2 2 2 2 2 2 2 2 2 2 2 2 2 2 2 2 2 2 2 2 2 2 2 2 2 2 2 2 2 2 2 2 2 2 2 2 2 2 2 2 2 2 2 2 2 2 2 2 2 2 2 2 2 2 2 2 2 2 2 2 2 2 2 2 2 2 2 2 2 2 2 2 2 2 2 2 2 2 2 2 2 2 2 2 2 2 2 2 2 2 2 2 2 2 2 2 2 2 2 2 2 2 2 2 2 2 2 2 2 2 2 2 2 2 2 2 2 2 2 2 2 2 2 2 2 2 2 2 2 2 2 2 2 2 2 2 2 2 2 2 2 2 2 2 2 2 2 2 2 2 2 2 2 2 2 2 2 2 2 2 2 2 2 2 2 2 2 2 2 2 2 2 2 2 2 2 2 2 2 2 2 2 2 2 2 2 2 2 2 2 2 2 2 2 2 2 2 2 2 2 2 2 2 2 2 2 2 2 2 2 2 2 2 2 2 2 2 2 2 2 2 2 2 2 2 2 2 2 2 2 2 2 2 2 2 2 2 2 2 2 2 2 2 2 2 2 2 2 2 2 2 2 2 2 2 2 2 2 2
625
3 25 1 0
3 26 2 1
3 27 3 2
3 28 4 3
3 29 5 4
3 30 6 5
3 31 7 6
3 32 8 7
3 33 9 8
3 34 10 9
3 35 11 10
3 36 12 11
3 37 13 12
3 38 14 13
3 39 15 14
3 40 16 15
3 41 17 16
3 42 18 17
3 43 19 18
3 44 20 19
3 45 21 20
3 46 22 21
3 47 23 22
3 48 24 23
2 49 24
3 50 26 25
3 51 27 26
3 52 28 27
3 53 29 28
3 54 30 29
3 55 31 30
3 56 32 31
3 57 33 32
3 58 34 33
3 59 35 34
3 60 36 35
3 61 37 36
3 62 38 37
3 63 39 38
3 64 40 39
3 65 41 40
3 66 42 41
3 67 43 42
3 68 44 43
3 69 45 44
3 70 46 45
3 71 47 46
3 72 48 47
3 73 49 48
2 74 49
3 75 51 50
3 76 52 51
3 77 53 52
3 78 54 53
3 79 55 54
3 80 56 55
3 81 57 56
3 82 58 57
3 83 59 58
3 84 60 59
3 85 61 60
3 86 62 61
3 87 63 62
3 88 64 63
3 89 65 64
3 90 66 65
3 91 67 66
3 92 68 67
3 93 69 68
3 94 70 69
3 95 71 70
3 96 72 71
3 97 73 72
3 98 74 73
2 99 74
3 100 76 75
3 101 77 76
3 102 78 77
3 103 79 78
3 104 80 79
3 105 81 80
3 106 82 81
3 107 83 82
3 108 84 83
3 109 85 84
3 110 86 85
3 111 87 86
3 112 88 87
3 113 89 88
3 114 90 89
3 115 91 90
3 116 92 91
3 117 93 92
3 118 94 93
3 119 95 94
3 120 96 95
3 121 97 96
3 122 98 97
3 123 99 98
2 124 99
3 125 101 100
3 126 102 101
3 127 103 102
3 128 104 103
3 129 105 104
3 130 106 105
3 131 107 106
3 132 108 107
3 133 109 108
3 134 110 109
3 135 111 110
3 136 112 111
3 137 113 112
3 138 114 113
3 139 115 114
3 140 116 115
3 141 117 116
3 142 118 117
3 143 119 118
3 144 120 119
3 145 121 120
3 146 122 121
3 147 123 122
3 148 124 123
2 149 124
3 150 126 125
3 151 127 126
3 152 128 127
3 153 129 128
3 154 130 129
3 155 131 130
3 156 132 131
3 157 133 132
3 158 134 133
3 159 135 134
3 160 136 135
3 161 137 136
3 162 138 137
3 163 139 138
3 164 140 139
3 165 141 140
3 166 142 141
3 167 143 142
3 168 144 143
3 169 145 144
3 170 146 145
3 171 147 146
3 172 148 147
3 173 149 148
2 174 149
3 175 151 150
3 176 152 151
3 177 153 152
3 178 154 153
3 179 155 154
3 180 156 155
3 181 157 156
3 182 158 157
3 183 159 158
3 184 160 159
3 185 161 160
3 186 162 161
3 187 163 162
3 188 164 163
3 189 165 164
3 190 166 165
3 191 167 166
3 192 168 167
3 193 169 168
3 194 170 169
3 195 171 170
3 196 172 171
3 197 173 172
3 198 174 173
2 199 174
3 200 176 175
3 201 177 176
3 202 178 177
3 203 179 178
3 204 180 179
3 205 181 180
3 206 182 181
3 207 183 182
3 208 184 183
3 209 185 184
3 210 186 185
3 211 187 186
3 212 188 187
3 213 189 188
3 214 190 189
3 215 191 190
3 216 192 191
3 217 193 192
3 218 194 193
3 219 195 194
3 220 196 195
3 221 197 196
3 222 198 197
3 223 199 198
2 224 199
3 225 201 200
3 226 202 201
3 227 203 202
3 228 204 203
3 229 205 204
3 230 206 205
3 231 207 206
3 232 208 207
3 233 209 208
3 234 210 209
3 235 211 210
3 236 212 211
3 237 213 212
3 238 214 213
3 239 215 214
3 240 216 215
3 241 217 216
3 242 218 217
3 243 219 218
3 244 220 219
3 245 221 220
3 246 222 221
3 247 223 222
3 248 224 223
2 249 224
3 250 226 225
3 251 227 226
3 252 228 227
3 253 229 228
3 254 230 229
3 255 231 230
3 256 232 231
3 257 233 232
3 258 234 233
3 259 235 234
3 260 236 235
3 261 237 236
3 262 238 237
3 263 239 238
3 264 240 239
3 265 241 240
3 266 242 241
3 267 243 242
3 268 244 243
3 269 245 244
3 270 246 245
3 271 247 246
3 272 248 247
3 273 249 248
2 274 249
3 275 251 250
3 276 252 251
3 277 253 252
3 278 254 253
3 279 255 254
3 280 256 255
3 281 257 256
3 282 258 257
3 283 259 258
3 284 260 259
3 285 261 260
3 286 262 261
3 287 263 262
3 288 264 263
3 289 265 264
3 290 266 265
3 291 267 266
3 292 268 267
3 293 269 268
3 294 270 269
3 295 271 270
3 296 272 271
3 297 273 272
3 298 274 273
2 299 274
3 300 276 275
3 301 277 276
3 302 278 277
3 303 279 278
3 304 280 279
3 305 281 280
3 306 282 281
3 307 283 282
3 308 284 283
3 309 285 284
3 310 286 285
3 311 287 286
3 312 288 287
3 313 289 288
3 314 290 289
3 315 291 290
3 316 292 291
3 317 293 292
3 318 294 293
3 319 295 294
3 320 296 295
3 321 297 296
3 322 298 297
3 323 299 298
2 324 299
3 325 301 300
3 326 302 301
3 327 303 302
3 328 304 303
3 329 305 304
3 330 306 305
3 331 307 306
3 332 308 307
3 333 309 308
3 334 310 309
3 335 311 310
3 336 312 311
3 337 313 312
3 338 314 313
3 339 315 314
3 340 316 315
3 341 317 316
3 342 318 317
3 343 319 318
3 344 320 319
3 345 321 320
3 346 322 321
3 347 323 322
3 348 324 323
2 349 324
3 350 326 325
3 351 327 326
3 352 328 327
3 353 329 328
3 354 330 329
3 355 331 330
3 356 332 331
3 357 333 332
3 358 334 333
3 359 335 334
3 360 336 335
3 361 337 336
3 362 338 337
3 363 339 338
3 364 340 339
3 365 341 340
3 366 342 341
3 367 343 342
3 368 344 343
3 369 345 344
3 370 346 345
3 371 347 346
3 372 348 347
3 373 349 348
2 374 349
3 375 351 350
3 376 352 351
3 377 353 352
3 378 354 353
3 379 355 354
3 380 356 355
3 381 357 356
3 382 358 357
3 383 359 358
3 384 360 359
3 385 361 360
3 386 362 361
3 387 363 362
3 388 364 363
3 389 365 364
3 390 366 365
3 391 367 366
3 392 368 367
3 393 369 368
3 394 370 369
3 395 371 370
3 396 372 371
3 397 373 372
3 398 374 373
2 399 374
3 400 376 375
3 401 377 376
3 402 378 377
3 403 379 378
3 404 380 379
3 405 381 380
3 406 382 381
3 407 383 382
3 408 384 383
3 409 385 384
3 410 386 385
3 411 387 386
3 412 388 387
3 413 389 388
3 414 390 389
3 415 391 390
3 416 392 391
3 417 393 392
3 418 394 393
3 419 395 394
3 420 396 395
3 421 397 396
3 422 398 397
3 423 399 398
2 424 399
3 425 401 400
3 426 402 401
3 427 403 402
3 428 404 403
3 429 405 404
3 430 406 405
3 431 407 406
3 432 408 407
3 433 409 408
3 434 410 409
3 435 411 410
3 436 412 411
3 437 413 412
3 438 414 413
3 439 415 414
3 440 416 415
3 441 417 416
3 442 418 417
3 443 419 418
3 444 420 419
3 445 421 420
3 446 422 421
3 447 423 422
3 448 424 423
2 449 424
3 450 426 425
3 451 427 426
3 452 428 427
3 453 429 428
3 454 430 429
3 455 431 430
3 456 432 431
3 457 433 432
3 458 434 433
3 459 435 434
3 460 436 435
3 461 437 436
3 462 438 437
3 463 439 438
3 464 440 439
3 465 441 440
3 466 442 441
3 467 443 442
3 468 444 443
3 469 445 444
3 470 446 445
3 471 447 446
3 472 448 447
3 473 449 448
2 474 449
3 475 451 450
3 476 452 451
3 477 453 452
3 478 454 453
3 479 455 454
3 480 456 455
3 481 457 456
3 482 458 457
3 483 459 458
3 484 460 459
3 485 461 460
3 486 462 461
3 487 463 462
3 488 464 463
3 489 465 464
3 490 466 465
3 491 467 466
3 492 468 467
3 493 469 468
3 494 470 469
3 495 471 470
3 496 472 471
3 497 473 472
3 498 474 473
2 499 474
3 500 476 475
3 501 477 476
3 502 478 477
3 503 479 478
3 504 480 479
3 505 481 480
3 506 482 481
3 507 483 482
3 508 484 483
3 509 485 484
3 510 486 485
3 511 487 486
3 512 488 487
3 513 489 488
3 514 490 489
3 515 491 490
3 516 492 491
3 517 493 492
3 518 494 493
3 519 495 494
3 520 496 495
3 521 497 496
3 522 498 497
3 523 499 498
2 524 499
3 525 501 500
3 526 502 501
3 527 503 502
3 528 504 503
3 529 505 504
3 530 506 505
3 531 507 506
3 532 508 507
3 533 509 508
3 534 510 509
3 535 511 510
3 536 512 511
3 537 513 512
3 538 514 513
3 539 515 514
3 540 516 515
3 541 517 516
3 542 518 517
3 543 519 518
3 544 520 519
3 545 521 520
3 546 522 521
3 547 523 522
3 548 524 523
2 549 524
3 550 526 525
3 551 527 526
3 552 528 527
3 553 529 528
3 554 530 529
3 555 531 530
3 556 532 531
3 557 533 532
3 558 534 533
3 559 535 534
3 560 536 535
3 561 537 536
3 562 538 537
3 563 539 538
3 564 540 539
3 565 541 540
3 566 542 541
3 567 543 542
3 568 544 543
3 569 545 544
3 570 546 545
3 571 547 546
3 572 548 547
3 573 549 548
2 574 549
3 575 551 550
3 576 552 551
3 577 553 552
3 578 554 553
3 579 555 554
3 580 556 555
3 581 557 556
3 582 558 557
3 583 559 558
3 584 560 559
3 585 561 560
3 586 562 561
3 587 563 562
3 588 564 563
3 589 565 564
3 590 566 565
3 591 567 566
3 592 568 567
3 593 569 568
3 594 570 569
3 595 571 570
3 596 572 571
3 597 573 572
3 598 574 573
2 599 574
3 600 576 575
3 601 577 576
3 602 578 577
3 603 579 578
3 604 580 579
3 605 581 580
3 606 582 581
3 607 583 582
3 608 584 583
3 609 585 584
3 610 586 585
3 611 587 586
3 612 588 587
3 613 589 588
3 614 590 589
3 615 591 590
3 616 592 591
3 617 593 592
3 618 594 593
3 619 595 594
3 620 596 595
3 621 597 596
3 622 598 597
3 623 599 598
2 624 599
2 601 600
2 602 601
2 603 602
2 604 603
2 605 604
2 606 605
2 607 606
2 608 607
2 609 608
2 610 609
2 611 610
2 612 611
2 613 612
2 614 613
2 615 614
2 616 615
2 617 616
2 618 617
2 619 618
2 620 619
2 621 620
2 622 621
2 623 622
2 624 623
1  624
8
0 1 0 1 1 0 1 0
8
0 1 1 0 0 1 1 0
8
1 0 1 0 1 0 1 0
8
1 0 0 1 0 1 0 1
8
0.8345936870551173 0.16540631294488276 0.5243557204237129 0.475644279576287 0.9795601590190139 0.02043984098098612 0.13269942015506536 0.8673005798449347
8
1 0 0 1 1 0 0 1
8
1 0 0 1 1 0 0 1
8
1 0 0 1 0 1 0 1
8
0 1 0 1 1 0 0 1
8
0 1 0 1 0 1 1 0
8
0 1 1 0 1 0 1 0
8
1 0 0 1 0 1 0 1
8
0.5906200184573062 0.4093799815426937 0.9624116325441594 0.03758836745584059 0.13491593822818698 0.865084061771813 0.36767293237608084 0.6323270676239192
8
1 0 0 1 0 1 0 1
8
0 1 1 0 1 0 1 0
8
1 0 1 0 0 1 1 0
8
0 1 0 1 1 0 1 0
8
1 0 0 1 0 1 0 1
8
1 0 1 0 1 0 1 0
8
0 1 1 0 0 1 1 0
8
0 1 0 1 1 0 0 1
8
0.3326261931136234 0.6673738068863767 0.8873000123362389 0.11269998766376109 0.12990816289571963 0.8700918371042804 0.8880551380335487 0.11194486196645127
8
1 0 0 1 0 1 0 1
8
0 1 0 1 1 0 0 1
4
1 0 1 0
8
0 1 0 1 1 0 0 1
8
0 1 1 0 0 1 1 0
8
1 0 1 0 1 0 1 0
8
1 0 1 0 1 0 0 1
8
0 1 1 0 1 0 0 1
8
1 0 1 0 0 1 0 1
8
0 1 1 0 1 0 1 0
8
1 0 0 1 0 1 0 1
8
1 0 1 0 0 1 0 1
8
1 0 1 0 0 1 0 1
8
1 0 1 0 0 1 1 0
8
1 0 1 0 0 1 1 0
8
1 0 1 0 1 0 1 0
8
1 0 1 0 0 1 0 1
8
1 0 1 0 0 1 0 1
8
0.42133032533590187 0.5786696746640982 0.38197712291222463 0.6180228770877754 0.5394557590349902 0.46054424096500984 0.8966275039951467 0.10337249600485335
8
0 1 0 1 0 1 0 1
8
0.8638611541328928 0.1361388458671072 0.8939728216302439 0.10602717836975606 0.5101965733802714 0.4898034266197287 0.4400865086256761 0.5599134913743239
8
1 0 1 0 1 0 0 1
8
0.43240929091275093 0.5675907090872491 0.3958681493069904 0.6041318506930096 0.7661113759994432 0.23388862400055663 0.7094903316780687 0.29050966832193126
8
1 0 0 1 0 1 0 1
8
1 0 1 0 1 0 0 1
8
0 1 1 0 1 0 0 1
8
0 1 0 1 1 0 0 1
4
0 1 0 1
8
1 0 1 0 0 1 0 1
8
0 1 1 0 1 0 1 0
8
1 0 0 1 0 1 1 0
8
0 1 0 1 0 1 0 1
8
0.08831483885894642 0.9116851611410536 0.48354961781042993 0.5164503821895702 0.5831114686312129 0.4168885313687872 0.5107875847852411 0.4892124152147589
8
1 0 0 1 0 1 0 1
8
1 0 0 1 0 1 1 0
8
0.7333508492227362 0.2666491507772638 0.5303876118752638 0.4696123881247361 0.4342230489532945 0.5657769510467054 0.6740511096187672 0.3259488903812327
8
0 1 0 1 0 1 1 0
8
1 0 1 0 1 0 1 0
8
0 1 0 1 1 0 1 0
8
0 1 0 1 1 0 0 1
8
1 0 0 1 1 0 1 0
8
0 1 1 0 0 1 0 1
8
0 1 0 1 1 0 0 1
8
1 0 1 0 1 0 0 1
8
0 1 0 1 1 0 1 0
8
1 0 0 1 1 0 1 0
8
1 0 0 1 1 0 1 0
8
1 0 1 0 0 1 0 1
8
0 1 1 0 0 1 0 1
8
1 0 1 0 1 0 0 1
8
0.4718057832491536 0.5281942167508464 0.3379399596949704 0.6620600403050295 0.3374406473032667 0.6625593526967333 0.05388655532317746 0.9461134446768226
8
0 1 1 0 0 1 0 1
4
0 1 1 0
8
0 1 1 0 1 0 1 0
8
0.5663377067113742 0.4336622932886258 0.5712389218284858 0.4287610781715142 0.48107378504399007 0.5189262149560099 0.834717824449926 0.16528217555007396
8
0 1 0 1 1 0 1 0
8
0 1 0 1 0 1 0 1
8
0 1 0 1 1 0 0 1
8
1 0 1 0 0 1 0 1
8
1 0 1 0 0 1 0 1
8
0 1 0 1 0 1 0 1
8
0 1 1 0 0 1 0 1
8
0 1 0 1 0 1 1 0
8
0.5893942344751524 0.41060576552484773 0.00843838734320102 0.991561612656799 0.982115305086319 0.017884694913681075 0.5535953630340779 0.44640463696592214
8
1 0 0 1 1 0 0 1
8
1 0 1 0 0 1 0 1
8
1 0 0 1 1 0 0 1
8
1 0 0 1 1 0 0 1
8
0 1 1 0 1 0 1 0
8
1 0 0 1 1 0 1 0
8
0.8943851838698671 0.10561481613013296 0.8991740469204738 0.10082595307952628 0.46342172670382875 0.5365782732961714 0.0706735965921775 0.9293264034078225
8
0 1 1 0 0 1 1 0
8
0 1 0 1 1 0 0 1
8
0 1 1 0 0 1 0 1
8
0 1 0 1 0 1 1 0
8
1 0 0 1 1 0 1 0
8
1 0 0 1 0 1 0 1
4
1 0 0 1
8
0 1 1 0 0 1 1 0
8
1 0 1 0 0 1 0 1
8
1 0 0 1 0 1 1 0
8
0.5025687568738761 0.4974312431261238 0.28742115912120014 0.7125788408787997 0.5035428035029824 0.49645719649701747 0.26945741000876555 0.7305425899912344
8
0 1 0 1 0 1 1 0
8
1 0 0 1 1 0 1 0
8
0 1 0 1 0 1 0 1
8
0 1 0 1 0 1 1 0
8
1 0 0 1 0 1 0 1
8
1 0 1 0 1 0 0 1
8
1 0 1 0 0 1 1 0
8
1 0 0 1 0 1 1 0
8
1 0 0 1 1 0 0 1
8
0 1 0 1 1 0 0 1
8
0 1 1 0 1 0 1 0
8
1 0 0 1 0 1 0 1
8
0 1 1 0 1 0 1 0
8
1 0 0 1 1 0 1 0
8
0.8286735020154355 0.17132649798456442 0.4284677197574016 0.5715322802425984 0.5642831649250549 0.4357168350749451 0.5558006236427501 0.44419937635724993
8
1 0 1 0 0 1 0 1
8
0 1 1 0 0 1 0 1
8
1 0 0 1 0 1 0 1
8
0 1 1 0 1 0 0 1
8
1 0 1 0 0 1 0 1
4
1 0 0 1
8
1 0 0 1 1 0 1 0
8
0 1 0 1 0 1 1 0
8
0 1 1 0 0 1 1 0
8
0 1 0 1 0 1 0 1
8
0 1 1 0 0 1 0 1
8
1 0 0 1 1 0 1 0
8
0 1 0 1 0 1 0 1
8
1 0 0 1 0 1 0 1
8
1 0 1 0 0 1 0 1
8
1 0 0 1 1 0 1 0
8
0 1 1 0 0 1 0 1
8
0 1 1 0 0 1 0 1
8
0 1 1 0 1 0 1 0
8
1 0 1 0 0 1 0 1
8
0 1 1 0 1 0 0 1
8
1 0 0 1 0 1 0 1
8
1 0 1 0 0 1 1 0
8
0 1 0 1 1 0 1 0
8
0 1 1 0 1 0 0 1
8
0 1 0 1 0 1 1 0
8
0 1 0 1 0 1 1 0
8
0 1 1 0 0 1 0 1
8
1 0 1 0 0 1 1 0
8
0 1 1 0 0 1 0 1
4
1 0 0 1
8
1 0 1 0 1 0 1 0
8
0 1 1 0 0 1 0 1
8
1 0 0 1 0 1 1 0
8
0 1 1 0 1 0 0 1
8
0 1 0 1 1 0 0 1
8
0 1 0 1 0 1 0 1
8
1 0 0 1 0 1 1 0
8
1 0 1 0 1 0 0 1
8
1 0 0 1 1 0 0 1
8
0 1 0 1 1 0 1 0
8
0.29188393849669353 0.7081160615033064 0.41653367679076697 0.5834663232092331 0.9687691955799704 0.031230804420029557 0.22256408693539378 0.7774359130646062
8
1 0 0 1 1 0 1 0
8
0 1 0 1 1 0 1 0
8
0 1 1 0 0 1 1 0
8
0 1 0 1 0 1 0 1
8
1 0 0 1 1 0 1 0
8
0 1 0 1 0 1 1 0
8
1 0 0 1 0 1 1 0
8
1 0 0 1 0 1 0 1
8
0 1 0 1 1 0 1 0
8
0 1 1 0 0 1 0 1
8
0.9815959841125962 0.01840401588740387 0.9135069068985184 0.08649309310148154 0.5123922831135077 0.48760771688649224 0.8454127470539694 0.1545872529460306
8
0 1 1 0 1 0 0 1
8
1 0 0 1 1 0 0 1
4
0 1 0 1
8
0 1 0 1 1 0 0 1
8
0 1 0 1 0 1 1 0
8
0 1 1 0 1 0 1 0
8
1 0 0 1 1 0 1 0
8
0 1 0 1 0 1 0 1
8
1 0 1 0 1 0 0 1
8
1 0 1 0 0 1 1 0
8
1 0 1 0 1 0 0 1
8
0 1 0 1 1 0 1 0
8
0 1 0 1 0 1 0 1
8
0 1 1 0 0 1 1 0
8
0.18654868898226948 0.8134513110177304 0.9382285014922267 0.06177149850777335 0.58973618219514 0.41026381780486 0.39624042239126983 0.6037595776087301
8
0 1 1 0 0 1 0 1
8
0 1 0 1 0 1 1 0
8
1 0 0 1 0 1 1 0
8
0 1 0 1 0 1 0 1
8
0 1 1 0 0 1 0 1
8
0 1 0 1 0 1 0 1
8
1 0 0 1 1 0 1 0
8
0.22340570140344987 0.7765942985965502 0.04736618492421601 0.952633815075784 0.47546636006714305 0.524533639932857 0.6995508357265902 0.30044916427340984
8
0 1 1 0 1 0 1 0
8
1 0 0 1 0 1 0 1
8
1 0 1 0 1 0 1 0
8
0 1 1 0 0 1 1 0
4
0 1 0 1
8
1 0 0 1 1 0 0 1
8
1 0 0 1 1 0 1 0
8
0 1 0 1 1 0 1 0
8
0 1 1 0 0 1 1 0
8
1 0 0 1 1 0 1 0
8
0 1 1 0 1 0 1 0
8
0 1 0 1 0 1 0 1
8
1 0 1 0 0 1 1 0
8
1 0 0 1 0 1 0 1
8
1 0 0 1 1 0 0 1
8
1 0 0 1 1 0 0 1
8
0 1 1 0 0 1 0 1
8
0.2733843797332842 0.7266156202667158 0.9918154695971493 0.00818453040285074 0.8953868113583516 0.10461318864164836 0.12094303581745405 0.879056964182546
8
0.023167391364831157 0.9768326086351689 0.5278912888642442 0.47210871113575575 0.6957909178437646 0.3042090821562354 0.3385429816586147 0.6614570183413854
8
0.3555075011263424 0.6444924988736576 0.6151741072680924 0.3848258927319076 0.6229718134031789 0.3770281865968212 0.4706222000962545 0.5293777999037454
8
0 1 1 0 0 1 1 0
8
0 1 1 0 0 1 0 1
8
0 1 0 1 1 0 0 1
8
0 1 1 0 0 1 1 0
8
1 0 1 0 1 0 0 1
8
0 1 0 1 0 1 0 1
8
1 0 1 0 1 0 0 1
8
0 1 0 1 0 1 0 1
8
1 0 1 0 0 1 1 0
4
1 0 0 1
8
0 1 0 1 0 1 1 0
8
1 0 1 0 1 0 0 1
8
0 1 0 1 1 0 1 0
8
0 1 1 0 1 0 0 1
8
1 0 0 1 0 1 1 0
8
0 1 1 0 1 0 0 1
8
0 1 0 1 0 1 0 1
8
0 1 0 1 0 1 0 1
8
0 1 1 0 0 1 1 0
8
1 0 1 0 0 1 1 0
8
1 0 1 0 1 0 0 1
8
0 1 0 1 0 1 0 1
8
1 0 0 1 1 0 0 1
8
1 0 0 1 1 0 1 0
8
0 1 1 0 0 1 0 1
8
1 0 1 0 0 1 1 0
8
1 0 0 1 1 0 1 0
8
1 0 0 1 0 1 1 0
8
1 0 0 1 1 0 0 1
8
1 0 1 0 1 0 1 0
8
0 1 0 1 1 0 0 1
8
0 1 0 1 0 1 1 0
8
0.6819333068325031 0.3180666931674968 0.6468120154584194 0.3531879845415806 0.4312033113099192 0.5687966886900808 0.36532753210775537 0.6346724678922446
8
0 1 1 0 0 1 1 0
4
1 0 0 1
8
0.45495727605260383 0.5450427239473962 0.6113049056950568 0.3886950943049432 0.44620186714308385 0.5537981328569161 0.2886426764194623 0.7113573235805377
8
0 1 1 0 1 0 1 0
8
1 0 0 1 0 1 0 1
8
1 0 0 1 0 1 0 1
8
0 1 0 1 1 0 1 0
8
0.461109767723855 0.5388902322761451 0.055934716976732204 0.9440652830232678 0.18961402621978982 0.8103859737802102 0.934987850754094 0.06501214924590604
8
1 0 1 0 0 1 0 1
8
0 1 1 0 0 1 1 0
8
1 0 1 0 1 0 1 0
8
0.44724214828958336 0.5527578517104167 0.3993927929874025 0.6006072070125975 0.8773176143072108 0.12268238569278923 0.32209452130029587 0.6779054786997041
8
1 0 0 1 0 1 1 0
8
1 0 0 1 1 0 0 1
8
0 1 1 0 1 0 0 1
8
0 1 0 1 1 0 1 0
8
0 1 0 1 0 1 1 0
8
1 0 0 1 1 0 0 1
8
1 0 0 1 0 1 0 1
8
1 0 1 0 0 1 0 1
8
1 0 0 1 1 0 0 1
8
0 1 1 0 0 1 0 1
8
1 0 1 0 1 0 1 0
8
1 0 0 1 1 0 1 0
8
1 0 0 1 1 0 1 0
8
1 0 1 0 0 1 1 0
4
0 1 1 0
8
0 1 1 0 0 1 1 0
8
1 0 1 0 0 1 0 1
8
0.3363387864547013 0.6636612135452987 0.3852044304576422 0.6147955695423578 0.1709556877695989 0.8290443122304011 0.49953649969361325 0.5004635003063868
8
1 0 0 1 0 1 0 1
8
1 0 1 0 0 1 1 0
8
1 0 0 1 1 0 1 0
8
0 1 0 1 1 0 1 0
8
0 1 0 1 1 0 1 0
8
0 1 0 1 0 1 1 0
8
0 1 1 0 1 0 0 1
8
0 1 1 0 1 0 1 0
8
1 0 1 0 0 1 0 1
8
0 1 0 1 1 0 1 0
8
0 1 0 1 0 1 0 1
8
1 0 0 1 0 1 0 1
8
1 0 0 1 0 1 1 0
8
1 0 1 0 1 0 1 0
8
1 0 0 1 1 0 1 0
8
1 0 1 0 1 0 1 0
8
1 0 0 1 1 0 1 0
8
0 1 0 1 1 0 0 1
8
0.7375061107508585 0.2624938892491415 0.41866659686832997 0.58133340313167 0.4025099395953847 0.5974900604046154 0.23245083686403364 0.7675491631359663
8
0 1 1 0 0 1 0 1
8
1 0 0 1 1 0 0 1
4
1 0 0 1
8
0 1 1 0 0 1 1 0
8
0.6055935774274683 0.39440642257253167 0.4170093066048393 0.5829906933951607 0.041668158808418995 0.958331841191581 0.4103861204775834 0.5896138795224167
8
1 0 0 1 1 0 1 0
8
0 1 0 1 1 0 1 0
8
1 0 1 0 1 0 1 0
8
0 1 0 1 1 0 0 1
8
0 1 0 1 1 0 1 0
8
1 0 0 1 1 0 0 1
8
1 0 1 0 0 1 0 1
8
0 1 1 0 0 1 1 0
8
0.5311401863142752 0.46885981368572477 0.49385583835316266 0.5061441616468373 0.8063359391816599 0.19366406081833995 0.44256558760495823 0.5574344123950418
8
0.029945994743918316 0.9700540052560817 0.7461706406278046 0.2538293593721955 0.5527995063148986 0.4472004936851014 0.5848539562518669 0.4151460437481332
8
1 0 0 1 0 1 0 1
8
0 1 1 0 1 0 1 0
8
0 1 0 1 1 0 0 1
8
1 0 1 0 0 1 0 1
8
1 0 0 1 1 0 1 0
8
1 0 1 0 1 0 1 0
8
1 0 0 1 1 0 1 0
8
1 0 1 0 1 0 0 1
8
1 0 1 0 0 1 1 0
8
1 0 0 1 0 1 0 1
8
1 0 1 0 0 1 1 0
8
0 1 1 0 0 1 1 0
4
0 1 1 0
8
0 1 1 0 1 0 1 0
8
1 0 0 1 1 0 1 0
8
1 0 1 0 0 1 1 0
8
0 1 1 0 1 0 0 1
8
1 0 0 1 1 0 0 1
8
1 0 0 1 0 1 0 1
8
0 1 1 0 1 0 0 1
8
1 0 0 1 0 1 0 1
8
1 0 0 1 0 1 0 1
8
0 1 0 1 1 0 0 1
8
0.4194596293624505 0.5805403706375495 0.3494317789823908 0.6505682210176091 0.6089054868280217 0.39109451317197824 0.5041548218517163 0.49584517814828366
8
0 1 1 0 0 1 0 1
8
1 0 1 0 1 0 1 0
8
1 0 1 0 1 0 1 0
8
0 1 0 1 1 0 0 1
8
0 1 0 1 0 1 0 1
8
0 1 0 1 0 1 0 1
8
0 1 1 0 0 1 1 0
8
0 1 0 1 0 1 1 0
8
1 0 0 1 1 0 1 0
8
0 1 1 0 1 0 1 0
8
0 1 1 0 1 0 0 1
8
0 1 1 0 1 0 0 1
8
1 0 0 1 1 0 0 1
4
0 1 1 0
8
1 0 1 0 1 0 1 0
8
1 0 1 0 1 0 0 1
8
1 0 0 1 0 1 1 0
8
1 0 0 1 0 1 0 1
8
0 1 1 0 1 0 0 1
8
0 1 1 0 0 1 0 1
8
1 0 1 0 0 1 0 1
8
0.47585395490921306 0.5241460450907871 0.49317651117858563 0.5068234888214144 0.6302064423098507 0.36979355769014943 0.41051893219186125 0.5894810678081388
8
1 0 0 1 1 0 0 1
8
0 1 1 0 1 0 0 1
8
1 0 1 0 0 1 1 0
8
1 0 0 1 0 1 1 0
8
0 1 1 0 1 0 0 1
8
1 0 1 0 1 0 0 1
8
0 1 0 1 1 0 0 1
8
1 0 0 1 1 0 1 0
8
1 0 1 0 1 0 1 0
8
0 1 0 1 1 0 0 1
8
1 0 0 1 1 0 1 0
8
1 0 0 1 1 0 1 0
8
0.8666479674675022 0.13335203253249783 0.714374791661399 0.285625208338601 0.6278564945005306 0.37214350549946934 0.9261746457374316 0.07382535426256845
8
0.6311997957767207 0.36880020422327925 0.5096080257915182 0.4903919742084818 0.01992416828797202 0.980075831712028 0.7040698468871075 0.29593015311289256
8
0.10023593261060067 0.8997640673893993 0.24468404138548172 0.7553159586145184 0.5119899892181926 0.4880100107818073 0.5087110470168411 0.49128895298315883
8
1 0 0 1 1 0 1 0
4
1 0 1 0
8
0 1 1 0 0 1 1 0
8
1 0 1 0 1 0 1 0
8
0 1 1 0 0 1 0 1
8
0 1 0 1 1 0 1 0
8
1 0 0 1 1 0 1 0
8
1 0 1 0 1 0 0 1
8
0 1 1 0 1 0 1 0
8
1 0 0 1 1 0 1 0
8
1 0 1 0 1 0 0 1
8
0 1 1 0 1 0 0 1
8
0 1 0 1 1 0 1 0
8
1 0 1 0 0 1 1 0
8
0 1 0 1 0 1 0 1
8
1 0 0 1 1 0 1 0
8
1 0 1 0 0 1 1 0
8
0 1 1 0 1 0 0 1
8
1 0 0 1 1 0 0 1
8
0 1 1 0 1 0 1 0
8
0.47751312716932354 0.5224868728306765 0.4945552540923923 0.5054447459076077 0.5194293883271878 0.4805706116728122 0.5181694890656647 0.48183051093433515
8
0 1 1 0 1 0 0 1
8
0.23636827605564917 0.7636317239443509 0.6564028675305835 0.3435971324694164 0.3504567625135943 0.6495432374864056 0.384373312038884 0.6156266879611161
8
0 1 0 1 0 1 0 1
8
0 1 0 1 1 0 0 1
8
1 0 1 0 0 1 0 1
4
0 1 1 0
8
0 1 0 1 0 1 0 1
8
0.04334936798733537 0.9566506320126646 0.5140616809686976 0.4859383190313023 0.265050907219255 0.734949092780745 0.6517710059364594 0.34822899406354063
8
1 0 0 1 0 1 0 1
8
0 1 1 0 0 1 1 0
8
0 1 0 1 1 0 0 1
8
0 1 1 0 1 0 0 1
8
1 0 0 1 1 0 0 1
8
0 1 0 1 0 1 1 0
8
0 1 1 0 0 1 0 1
8
0.9130011514473689 0.08699884855263108 0.32595356754706944 0.6740464324529305 0.9864906204306315 0.013509379569368507 0.6893358408705043 0.3106641591294958
8
0 1 1 0 1 0 1 0
8
1 0 0 1 1 0 0 1
8
0 1 1 0 0 1 0 1
8
1 0 0 1 0 1 0 1
8
1 0 1 0 1 0 0 1
8
1 0 1 0 1 0 0 1
8
0 1 1 0 0 1 1 0
8
1 0 0 1 0 1 1 0
8
0 1 1 0 0 1 1 0
8
1 0 0 1 1 0 0 1
8
1 0 0 1 0 1 0 1
8
0 1 1 0 1 0 0 1
8
1 0 1 0 0 1 1 0
8
1 0 0 1 1 0 0 1
4
0 1 1 0
8
1 0 1 0 0 1 1 0
8
0 1 1 0 0 1 1 0
8
1 0 0 1 0 1 0 1
8
0.33340307506244493 0.6665969249375551 0.12693264090998724 0.8730673590900128 0.5480204183318096 0.45197958166819047 0.684314797613316 0.31568520238668396
8
0 1 0 1 1 0 1 0
8
1 0 0 1 0 1 0 1
8
1 0 0 1 1 0 1 0
8
1 0 0 1 0 1 1 0
8
0 1 0 1 1 0 1 0
8
0.9228090126460725 0.07719098735392753 0.39227412356258656 0.6077258764374134 0.8118958440408395 0.1881041559591605 0.5617959297906536 0.4382040702093463
8
0 1 1 0 0 1 1 0
8
1 0 0 1 1 0 0 1
8
0 1 0 1 1 0 0 1
8
1 0 1 0 1 0 0 1
8
1 0 0 1 1 0 1 0
8
1 0 0 1 0 1 1 0
8
1 0 1 0 0 1 1 0
8
0.916104843703117 0.08389515629688303 0.427479725131392 0.572520274868608 0.768077993283078 0.23192200671692198 0.5454410641485928 0.4545589358514072
8
1 0 0 1 1 0 1 0
8
0 1 0 1 0 1 0 1
8
0 1 0 1 0 1 1 0
8
0.49197560644861565 0.5080243935513844 0.7289454071201982 0.2710545928798018 0.3911024461633559 0.6088975538366442 0.8856353241062204 0.11436467589377963
8
0 1 0 1 1 0 0 1
8
0 1 0 1 1 0 0 1
4
1 0 0 1
8
0.3101016113650252 0.6898983886349749 0.695102164744897 0.3048978352551029 0.5379432872152369 0.46205671278476323 0.1325555027415107 0.8674444972584893
8
0.627713817333733 0.3722861826662669 0.5375769056863485 0.46242309431365153 0.2868955026754528 0.7131044973245473 0.48143253760018356 0.5185674623998164
8
1 0 0 1 0 1 1 0
8
0 1 1 0 0 1 0 1
8
0 1 1 0 0 1 0 1
8
0.23116673747579083 0.7688332625242091 0.7540164316809599 0.24598356831904009 0.37899525343482027 0.6210047465651797 0.39528003250977256 0.6047199674902274
8
1 0 0 1 1 0 0 1
8
0.10322831566178424 0.8967716843382157 0.45365094286715374 0.5463490571328462 0.6358303152764156 0.36416968472358435 0.2589535828176508 0.7410464171823493
8
0 1 1 0 0 1 1 0
8
1 0 1 0 0 1 1 0
8
0 1 0 1 1 0 0 1
8
0.35374650249391454 0.6462534975060854 0.8112220770574069 0.18877792294259305 0.8048251737098059 0.19517482629019411 0.5946666817240063 0.4053333182759938
8
1 0 1 0 1 0 1 0
8
0 1 0 1 1 0 0 1
8
1 0 0 1 1 0 0 1
8
0 1 0 1 1 0 1 0
8
1 0 1 0 1 0 0 1
8
1 0 1 0 1 0 1 0
8
0 1 1 0 1 0 0 1
8
0.8043166231917436 0.19568337680825643 0.5054745251254916 0.4945254748745083 0.7142728017494526 0.2857271982505474 0.7052192838295392 0.2947807161704607
8
0 1 1 0 1 0 1 0
8
1 0 1 0 1 0 0 1
8
1 0 1 0 1 0 1 0
8
1 0 0 1 0 1 0 1
4
0 1 1 0
8
1 0 0 1 1 0 0 1
8
0 1 0 1 1 0 1 0
8
0.4701183487061446 0.5298816512938554 0.19873808049639455 0.8012619195036055 0.8458898332281075 0.1541101667718925 0.5138706880402164 0.4861293119597836
8
0 1 1 0 0 1 0 1
8
1 0 0 1 0 1 0 1
8
0 1 1 0 0 1 1 0
8
1 0 0 1 0 1 1 0
8
0 1 0 1 0 1 0 1
8
1 0 0 1 1 0 0 1
8
0 1 0 1 0 1 1 0
8
0.9583334008288368 0.041666599171163235 0.8260003362856381 0.17399966371436187 0.4263811275423804 0.5736188724576197 0.7570198153885939 0.242980184611406
8
1 0 1 0 1 0 0 1
8
1 0 1 0 0 1 0 1
8
1 0 0 1 1 0 0 1
8
1 0 1 0 0 1 0 1
8
1 0 1 0 1 0 1 0
8
0 1 0 1 1 0 1 0
8
0 1 1 0 0 1 0 1
8
1 0 0 1 1 0 1 0
8
0.48753890922107596 0.5124610907789241 0.6562103455286895 0.3437896544713105 0.34180991627713664 0.6581900837228635 0.9119639073801598 0.08803609261984026
8
1 0 1 0 0 1 0 1
8
1 0 1 0 0 1 1 0
8
1 0 0 1 1 0 0 1
8
1 0 0 1 1 0 0 1
4
1 0 1 0
8
0 1 1 0 0 1 1 0
8
1 0 0 1 1 0 1 0
8
0 1 0 1 0 1 1 0
8
1 0 1 0 0 1 0 1
8
1 0 1 0 0 1 0 1
8
0 1 0 1 0 1 1 0
8
0 1 0 1 1 0 0 1
8
0 1 1 0 0 1 0 1
8
1 0 1 0 0 1 0 1
8
1 0 0 1 1 0 0 1
8
0 1 0 1 1 0 0 1
8
0 1 1 0 1 0 1 0
8
1 0 0 1 1 0 1 0
8
0 1 1 0 0 1 1 0
8
0.43443814495470057 0.5655618550452994 0.596453764765879 0.40354623523412103 0.4674642130999749 0.5325357869000251 0.4136999325540656 0.5863000674459342
8
0 1 1 0 1 0 1 0
8
0 1 0 1 0 1 1 0
8
1 0 0 1 0 1 0 1
8
0 1 0 1 0 1 1 0
8
0.7995592507006928 0.2004407492993072 0.8110439561642275 0.18895604383577247 0.1044071004265385 0.8955928995734616 0.8171258426592108 0.1828741573407891
8
1 0 0 1 1 0 0 1
8
1 0 1 0 1 0 1 0
8
0 1 1 0 1 0 1 0
8
0 1 1 0 1 0 1 0
4
1 0 0 1
8
1 0 1 0 0 1 0 1
8
1 0 0 1 1 0 0 1
8
0 1 0 1 0 1 1 0
8
0 1 1 0 1 0 0 1
8
1 0 1 0 0 1 0 1
8
1 0 0 1 1 0 0 1
8
1 0 0 1 1 0 0 1
8
0.7754192123894023 0.22458078761059774 0.5918769029134086 0.4081230970865914 0.13402893752960748 0.8659710624703925 0.674295144138777 0.325704855861223
8
1 0 0 1 0 1 1 0
8
0 1 0 1 0 1 1 0
8
1 0 1 0 0 1 0 1
8
1 0 0 1 1 0 0 1
8
0 1 1 0 1 0 0 1
8
0.19932347086906102 0.800676529130939 0.42639476477608323 0.5736052352239168 0.8196631954348625 0.1803368045651374 0.3697615250996517 0.6302384749003483
8
0 1 1 0 1 0 1 0
8
1 0 1 0 0 1 0 1
8
0 1 1 0 0 1 0 1
8
0.3545364617581615 0.6454635382418383 0.8968279141988882 0.10317208580111181 0.49807228878033166 0.5019277112196683 0.419682375644752 0.580317624355248
8
1 0 1 0 1 0 0 1
8
1 0 0 1 0 1 0 1
8
0 1 1 0 0 1 0 1
8
1 0 0 1 1 0 0 1
8
0.09799473235851736 0.9020052676414826 0.04734356751144566 0.9526564324885544 0.27072011696373227 0.7292798830362678 0.4902161597520586 0.5097838402479413
8
1 0 0 1 0 1 0 1
4
0 1 0 1
8
0 1 1 0 0 1 1 0
8
1 0 1 0 1 0 0 1
8
0.6438400691997391 0.35615993080026087 0.36986683281077243 0.6301331671892276 0.3260724740273212 0.6739275259726787 0.4210749618432983 0.5789250381567017
8
1 0 0 1 1 0 0 1
8
0 1 0 1 1 0 0 1
8
0 1 0 1 1 0 1 0
8
0 1 0 1 1 0 0 1
8
1 0 0 1 0 1 1 0
8
1 0 1 0 1 0 0 1
8
0 1 0 1 1 0 1 0
8
1 0 0 1 0 1 0 1
8
1 0 1 0 0 1 1 0
8
1 0 1 0 0 1 0 1
8
0 1 0 1 0 1 0 1
8
1 0 0 1 1 0 0 1
8
1 0 0 1 0 1 0 1
8
1 0 0 1 0 1 0 1
8
0 1 1 0 0 1 1 0
8
1 0 0 1 1 0 1 0
8
0 1 1 0 1 0 0 1
8
1 0 0 1 1 0 1 0
8
0 1 1 0 1 0 0 1
8
0 1 1 0 0 1 1 0
8
1 0 1 0 1 0 1 0
4
0 1 1 0
8
0 1 0 1 0 1 1 0
8
0 1 0 1 1 0 0 1
8
1 0 1 0 1 0 0 1
8
0 1 1 0 0 1 0 1
8
0.15766559901885682 0.8423344009811432 0.7462076814969645 0.25379231850303546 0.5294373100754285 0.4705626899245714 0.679412797592833 0.320587202407167
8
0 1 0 1 1 0 1 0
8
0 1 0 1 0 1 1 0
8
0 1 0 1 0 1 1 0
8
0 1 1 0 0 1 1 0
8
0 1 0 1 1 0 0 1
8
1 0 1 0 1 0 1 0
8
1 0 0 1 0 1 0 1
8
1 0 1 0 1 0 0 1
8
0 1 0 1 1 0 1 0
8
1 0 1 0 0 1 0 1
8
0 1 1 0 0 1 1 0
8
1 0 1 0 1 0 0 1
8
0 1 0 1 1 0 0 1
8
0 1 1 0 1 0 0 1
8
0 1 0 1 0 1 1 0
8
1 0 1 0 1 0 1 0
8
0 1 0 1 0 1 1 0
8
1 0 0 1 1 0 0 1
8
0.7300495800580784 0.26995041994192165 0.5697142955433379 0.4302857044566622 0.4608004102657796 0.5391995897342203 0.22183368890980665 0.7781663110901933
4
1 0 0 1
4
1 0 1 0
4
1 0 0 1
4
1 0 1 0
4
0 1 1 0
4
0 1 0 1
4
0.45449592166265756 0.5455040783373425 0.9287309036831276 0.07126909631687242
4
1 0 1 0
4
0 1 1 0
4
0 1 1 0
4
1 0 1 0
4
0.7020127982723599 0.29798720172764015 0.23076912632539798 0.769230873674602
4
0 1 1 0
4
0 1 0 1
4
1 0 0 1
4
0 1 0 1
4
0 1 1 0
4
1 0 1 0
4
1 0 0 1
4
1 0 0 1
4
1 0 1 0
4
1 0 0 1
4
0 1 1 0
4
0 1 1 0
4
1 0 1 0
2
1 0
